n=15;
t=18;
profit=[9 10 10 2 10 1 2 9 2 5 4 3 1 10 8];
length=[1 5 3 3 4 4 2 1 2 2 3 4 3 5 3];
min_deliver=[2 5 9 4 4 4 2 3 10 10 3 11 15 7 3];
max_deliver=[3 9 18 12 4 7 10 5 16 14 3 12 17 7 6];
surface=[5 5 1 3 2 4 2 1 4 3 1 1 5 3 1];
surface_capacity=9;
